NAME : cgl_78.12027.tour
COMMENT : Length = 12027
COMMENT : Found by LKH-3 [Keld Helsgaun] Fri Nov  8 19:20:31 2024
TYPE : TOUR
DIMENSION : 78
TOUR_SECTION
57
60
49
44
40
42
41
43
37
36
39
38
35
30
34
32
33
31
20
26
23
19
29
24
27
25
22
21
28
18
17
16
15
13
14
11
5
9
10
4
3
2
65
77
72
70
71
73
75
69
74
76
68
66
67
64
63
62
78
1
8
6
7
12
61
53
55
47
56
45
59
54
46
58
48
51
52
50
-1
EOF
